\ Model vert
\ LP format - for model browsing. Use MPS format to capture full model detail.
Minimize
  7.3375602347204266e+06 S_coef + 203765.6515949481 Constant + [
   1.32112036e+08 S_coef ^2 ] / 2 
Subject To
Bounds
 -1000 <= S_coef <= 1000
 Constant = 1
End
